data;

set A := 786231052 212855644 379316019 65667170 174006370 691447745 938778106 640000992 670152172 520651759 866821805 413167652 845193285 485887520 164511367 249067377 373365339 57463344 666966583 363503051 562460076 905763805 642721309 902583609 216751754 315584774 439076490 659200004 167969879 679971821 881346051 82895094 227879881 522917748 643959167 683818396 612533031 14172003 231535268 304269956 773790345 793807520 873389581 404043647;
param T := 11000000000;

end;
